problem_generation/data/GISP/train/er_n=67_m=1293_p=0.60_SET2_setparam=100.00_alpha=0.50_401.lp
maximize
OBJ:100x0 + 100x1 + 100x2 + 100x3 + 100x4 + 100x5 + 100x6 + 100x7 + 100x8 + 100x9 + 100x10 + 100x11 + 100x12 + 100x13 + 100x14 + 100x15 + 100x16 + 100x17 + 100x18 + 100x19 + 100x20 + 100x21 + 100x22 + 100x23 + 100x24 + 100x25 + 100x26 + 100x27 + 100x28 + 100x29 + 100x30 + 100x31 + 100x32 + 100x33 + 100x34 + 100x35 + 100x36 + 100x37 + 100x38 + 100x39 + 100x40 + 100x41 + 100x42 + 100x43 + 100x44 + 100x45 + 100x46 + 100x47 + 100x48 + 100x49 + 100x50 + 100x51 + 100x52 + 100x53 + 100x54 + 100x55 + 100x56 + 100x57 + 100x58 + 100x59 + 100x60 + 100x61 + 100x62 + 100x63 + 100x64 + 100x65 + 100x66 - y15_21 - y55_57 - y36_53 - y7_35 - y18_35 - y5_65 - y18_44 - y8_9 - y9_63 - y29_41 - y48_54 - y0_14 - y29_50 - y40_50 - y41_51 - y25_34 - y2_41 - y25_43 - y10_54 - y44_56 - y25_52 - y25_61 - y3_24 - y14_24 - y22_37 - y43_60 - y14_33 - y13_65 - y14_51 - y36_48 - y15_25 - y36_57 - y17_53 - y18_30 - y36_66 - y29_36 - y21_32 - y6_43 - y21_50 - y40_63 - y21_59 - y10_22 - y54_65 - y33_42 - y2_36 - y10_49 - y3_10 - y10_58 - y2_54 - y13_51 - y3_28 - y43_64 - y13_60 - y24_60 - y3_37 - y35_60 - y16_65 - y5_46 - y59_63 - y48_53 - y62_64 - y2_31 - y12_63 - y3_5 - y32_50 - y22_27 - y13_46 - y3_23 - y1_53 - y14_32 - y13_64 - y24_64 - y35_64 - y7_11 - y9_30 - y5_41 - y36_56 - y9_39 - y17_52 - y47_65 - y28_61 - y6_24 - y9_57 - y21_22 - y21_31 - y21_40 - y2_8 - y10_21 - y39_66 - y31_62 - y10_39 - y12_58 - y13_32 - y24_32 - y32_45 - y51_58 - y24_41 - y14_18 - y13_50 - y24_50 - y16_46 - y1_57 - y13_59 - y35_59 - y17_20 - y5_27 - y17_29 - y47_51 - y17_47 - y28_56 - y5_63 - y27_60 - y50_62 - y19_65 - y10_16 - y20_48 - y31_48 - y39_61 - y12_44 - y62_63 - y54_59 - y4_49 - y12_62 - y1_34 - y24_36 - y1_43 - y13_45 - y24_54 - y16_59 - y46_60 - y9_20 - y17_42 - y5_58 - y42_44 - y27_55 - y30_60 - y20_34 - y39_56 - y2_16 - y20_52 - y12_57 - y13_22 - y23_57 - y32_35 - y23_66 - y1_29 - y35_40 - y1_47 - y35_49 - y1_65 - y9_15 - y38_51 - y46_64 - y49_51 - y38_60 - y5_35 - y28_37 - y5_44 - y50_52 - y19_46 - y50_61 - y19_55 - y30_64 - y42_66 - y0_60 - y11_60 - y39_42 - y39_51 - y31_47 - y1_15 - y4_48 - y12_61 - y34_58 - y13_35 - y4_66 - y16_40 - y9_10 - y17_23 - y57_59 - y15_53 - y38_55 - y9_28 - y7_58 - y18_58 - y27_45 - y19_41 - y50_56 - y11_37 - y8_50 - y19_50 - y42_52 - y8_59 - y12_20 - y31_33 - y11_64 - y12_29 - y31_42 - y12_47 - y1_10 - y4_43 - y23_56 - y4_52 - y24_30 - y53_66 - y16_26 - y34_62 - y37_58 - y3_65 - y5_16 - y9_14 - y15_48 - y38_50 - y46_63 - y49_59 - y7_53 - y18_53 - y15_66 - y19_27 - y19_36 - y30_36 - y11_32 - y0_41 - y11_41 - y19_54 - y30_54 - y42_56 - y0_50 - y11_50 - y12_15 - y0_59 - y39_41 - y41_60 - y20_37 - y4_20 - y31_37 - y23_33 - y34_48 - y24_25 - y37_44 - y1_32 - y37_53 - y45_66 - y5_11 - y18_39 - y15_52 - y26_52 - y38_54 - y18_48 - y8_13 - y18_57 - y19_22 - y0_18 - y11_18 - y27_44 - y11_36 - y30_49 - y0_45 - y11_45 - y0_54 - y11_54 - y52_55 - y52_64 - y22_41 - y22_50 - y45_52 - y53_65 - y56_61 - y14_55 - y15_20 - y14_64 - y26_38 - y18_34 - y18_43 - y26_56 - y18_52 - y27_30 - y7_61 - y8_26 - y18_61 - y30_44 - y0_40 - y4_10 - y33_46 - y12_23 - y41_59 - y52_59 - y10_53 - y33_55 - y4_28 - y22_36 - y34_47 - y22_54 - y34_56 - y3_50 - y37_52 - y22_63 - y18_20 - y26_33 - y18_38 - y26_51 - y7_47 - y0_17 - y29_53 - y8_30 - y19_30 - y48_66 - y6_60 - y25_37 - y33_50 - y52_63 - y10_66 - y2_62 - y3_27 - y3_36 - y22_49 - y3_45 - y3_54 - y7_15 - y7_24 - y18_24 - y26_37 - y59_62 - y7_33 - y18_33 - y28_65 - y8_16 - y21_44 - y29_57 - y40_57 - y11_30 - y29_66 - y41_49 - y33_45 - y52_58 - y3_13 - y10_61 - y33_63 - y44_63 - y25_59 - y3_31 - y22_44 - y3_40 - y36_46 - y36_55 - y15_32 - y47_64 - y17_60 - y8_11 - y6_41 - y29_43 - y40_43 - y48_56 - y48_65 - y41_44 - y10_47 - y33_49 - y25_45 - y2_52 - y22_30 - y2_61 - y14_26 - y43_62 - y3_35 - y36_41 - y15_18 - y17_46 - y7_23 - y9_42 - y5_62 - y6_27 - y29_38 - y40_47 - y20_65 - y2_38 - y25_40 - y3_12 - y32_48 - y32_57 - y43_57 - y13_53 - y24_53 - y3_30 - y13_62 - y9_37 - y5_48 - y17_59 - y6_22 - y29_42 - y29_51 - y40_51 - y2_6 - y39_55 - y10_28 - y62_66 - y25_26 - y31_60 - y2_33 - y3_7 - y32_61 - y16_44 - y13_57 - y1_64 - y17_27 - y36_40 - y47_49 - y36_58 - y5_52 - y6_17 - y21_24 - y21_33 - y10_14 - y10_23 - y54_57 - y13_25 - y51_60 - y13_43 - y24_43 - y35_43 - y1_50 - y24_52 - y35_52 - y43_65 - y13_61 - y24_61 - y17_40 - y28_40 - y6_12 - y5_56 - y42_51 - y21_28 - y27_62 - y0_63 - y23_46 - y2_23 - y54_61 - y12_55 - y13_20 - y13_29 - y24_29 - y4_60 - y13_38 - y35_47 - y1_63 - y5_24 - y57_62 - y49_58 - y5_33 - y6_16 - y21_23 - y27_66 - y8_62 - y19_62 - y20_27 - y0_58 - y11_58 - y30_62 - y20_36 - y39_40 - y12_41 - y23_41 - y20_54 - y23_59 - y53_60 - y4_55 - y16_20 - y24_33 - y24_42 - y35_42 - y16_38 - y1_49 - y35_51 - y46_48 - y17_21 - y46_57 - y9_17 - y49_53 - y5_28 - y46_66 - y9_26 - y49_62 - y5_37 - y9_35 - y6_20 - y30_39 - y30_57 - y11_53 - y30_66 - y2_4 - y13_19 - y4_50 - y24_28 - y4_59 - y16_24 - y34_60 - y45_60 - y56_60 - y16_33 - y37_65 - y5_14 - y15_46 - y5_23 - y57_61 - y49_57 - y7_60 - y27_38 - y19_34 - y0_30 - y30_52 - y12_13 - y30_61 - y20_26 - y60_62 - y0_57 - y11_57 - y4_18 - y0_66 - y23_31 - y23_40 - y1_3 - y23_49 - y34_46 - y4_54 - y37_51 - y16_28 - y3_58 - y37_60 - y46_47 - y26_41 - y5_18 - y9_16 - y26_50 - y38_52 - y46_65 - y38_61 - y8_20 - y7_64 - y27_42 - y0_25 - y19_38 - y42_49 - y20_21 - y20_30 - y52_62 - y33_58 - y10_65 - y25_63 - y34_50 - y16_23 - y45_59 - y3_53 - y15_27 - y5_13 - y7_32 - y15_45 - y15_54 - y15_63 - y26_63 - y19_33 - y0_29 - y11_29 - y8_42 - y29_65 - y30_42 - y0_38 - y11_38 - y19_51 - y41_48 - y20_25 - y60_61 - y12_21 - y12_30 - y52_66 - y4_26 - y10_60 - y33_62 - y1_2 - y34_36 - y2_65 - y34_45 - y3_39 - y14_39 - y3_57 - y37_59 - y7_18 - y3_66 - y26_31 - y18_27 - y59_65 - y15_40 - y15_49 - y26_49 - y0_6 - y48_55 - y27_32 - y0_24 - y19_37 - y11_33 - y0_42 - y11_42 - y10_46 - y41_61 - y2_51 - y33_66 - y2_60 - y34_40 - y34_49 - y45_58 - y14_52 - y15_17 - y22_65 - y3_61 - y15_26 - y59_60 - y15_35 - y7_40 - y0_1 - y7_49 - y18_49 - y29_46 - y40_46 - y29_64 - y40_64 - y25_30 - y4_7 - y10_41 - y33_43 - y25_39 - y41_56 - y4_16 - y10_50 - y41_65 - y2_46 - y52_56 - y44_61 - y2_55 - y3_20 - y25_57 - y22_33 - y2_64 - y25_66 - y3_38 - y22_51 - y3_47 - y14_56
 Subject to
C1: x0+x1-y0_1 <=1 
C2: x0+x2 <=1 
C3: x0+x6-y0_6 <=1 
C4: x0+x8 <=1 
C5: x0+x11 <=1 
C6: x0+x14-y0_14 <=1 
C7: x0+x17-y0_17 <=1 
C8: x0+x18-y0_18 <=1 
C9: x0+x22 <=1 
C10: x0+x24-y0_24 <=1 
C11: x0+x25-y0_25 <=1 
C12: x0+x26 <=1 
C13: x0+x27 <=1 
C14: x0+x28 <=1 
C15: x0+x29-y0_29 <=1 
C16: x0+x30-y0_30 <=1 
C17: x0+x31 <=1 
C18: x0+x34 <=1 
C19: x0+x38-y0_38 <=1 
C20: x0+x39 <=1 
C21: x0+x40-y0_40 <=1 
C22: x0+x41-y0_41 <=1 
C23: x0+x42-y0_42 <=1 
C24: x0+x45-y0_45 <=1 
C25: x0+x46 <=1 
C26: x0+x49 <=1 
C27: x0+x50-y0_50 <=1 
C28: x0+x51 <=1 
C29: x0+x54-y0_54 <=1 
C30: x0+x55 <=1 
C31: x0+x57-y0_57 <=1 
C32: x0+x58-y0_58 <=1 
C33: x0+x59-y0_59 <=1 
C34: x0+x60-y0_60 <=1 
C35: x0+x63-y0_63 <=1 
C36: x0+x66-y0_66 <=1 
C37: x1+x2-y1_2 <=1 
C38: x1+x3-y1_3 <=1 
C39: x1+x4 <=1 
C40: x1+x10-y1_10 <=1 
C41: x1+x11 <=1 
C42: x1+x12 <=1 
C43: x1+x15-y1_15 <=1 
C44: x1+x16 <=1 
C45: x1+x17 <=1 
C46: x1+x20 <=1 
C47: x1+x21 <=1 
C48: x1+x22 <=1 
C49: x1+x25 <=1 
C50: x1+x29-y1_29 <=1 
C51: x1+x31 <=1 
C52: x1+x32-y1_32 <=1 
C53: x1+x33 <=1 
C54: x1+x34-y1_34 <=1 
C55: x1+x36 <=1 
C56: x1+x38 <=1 
C57: x1+x39 <=1 
C58: x1+x41 <=1 
C59: x1+x43-y1_43 <=1 
C60: x1+x45 <=1 
C61: x1+x46 <=1 
C62: x1+x47-y1_47 <=1 
C63: x1+x49-y1_49 <=1 
C64: x1+x50-y1_50 <=1 
C65: x1+x53-y1_53 <=1 
C66: x1+x54 <=1 
C67: x1+x57-y1_57 <=1 
C68: x1+x58 <=1 
C69: x1+x59 <=1 
C70: x1+x61 <=1 
C71: x1+x63-y1_63 <=1 
C72: x1+x64-y1_64 <=1 
C73: x1+x65-y1_65 <=1 
C74: x2+x4-y2_4 <=1 
C75: x2+x5 <=1 
C76: x2+x6-y2_6 <=1 
C77: x2+x8-y2_8 <=1 
C78: x2+x9 <=1 
C79: x2+x10 <=1 
C80: x2+x12 <=1 
C81: x2+x13 <=1 
C82: x2+x16-y2_16 <=1 
C83: x2+x20 <=1 
C84: x2+x21 <=1 
C85: x2+x23-y2_23 <=1 
C86: x2+x25 <=1 
C87: x2+x31-y2_31 <=1 
C88: x2+x33-y2_33 <=1 
C89: x2+x36-y2_36 <=1 
C90: x2+x38-y2_38 <=1 
C91: x2+x41-y2_41 <=1 
C92: x2+x42 <=1 
C93: x2+x43 <=1 
C94: x2+x44 <=1 
C95: x2+x46-y2_46 <=1 
C96: x2+x49 <=1 
C97: x2+x51-y2_51 <=1 
C98: x2+x52-y2_52 <=1 
C99: x2+x54-y2_54 <=1 
C100: x2+x55-y2_55 <=1 
C101: x2+x57 <=1 
C102: x2+x59 <=1 
C103: x2+x60-y2_60 <=1 
C104: x2+x61-y2_61 <=1 
C105: x2+x62-y2_62 <=1 
C106: x2+x63 <=1 
C107: x2+x64-y2_64 <=1 
C108: x2+x65-y2_65 <=1 
C109: x2+x66 <=1 
C110: x3+x5-y3_5 <=1 
C111: x3+x7-y3_7 <=1 
C112: x3+x8 <=1 
C113: x3+x10-y3_10 <=1 
C114: x3+x11 <=1 
C115: x3+x12-y3_12 <=1 
C116: x3+x13-y3_13 <=1 
C117: x3+x14 <=1 
C118: x3+x15 <=1 
C119: x3+x16 <=1 
C120: x3+x19 <=1 
C121: x3+x20-y3_20 <=1 
C122: x3+x23-y3_23 <=1 
C123: x3+x24-y3_24 <=1 
C124: x3+x27-y3_27 <=1 
C125: x3+x28-y3_28 <=1 
C126: x3+x30-y3_30 <=1 
C127: x3+x31-y3_31 <=1 
C128: x3+x32 <=1 
C129: x3+x34 <=1 
C130: x3+x35-y3_35 <=1 
C131: x3+x36-y3_36 <=1 
C132: x3+x37-y3_37 <=1 
C133: x3+x38-y3_38 <=1 
C134: x3+x39-y3_39 <=1 
C135: x3+x40-y3_40 <=1 
C136: x3+x41 <=1 
C137: x3+x44 <=1 
C138: x3+x45-y3_45 <=1 
C139: x3+x46 <=1 
C140: x3+x47-y3_47 <=1 
C141: x3+x49 <=1 
C142: x3+x50-y3_50 <=1 
C143: x3+x53-y3_53 <=1 
C144: x3+x54-y3_54 <=1 
C145: x3+x57-y3_57 <=1 
C146: x3+x58-y3_58 <=1 
C147: x3+x60 <=1 
C148: x3+x61-y3_61 <=1 
C149: x3+x64 <=1 
C150: x3+x65-y3_65 <=1 
C151: x3+x66-y3_66 <=1 
C152: x4+x5 <=1 
C153: x4+x6 <=1 
C154: x4+x7-y4_7 <=1 
C155: x4+x10-y4_10 <=1 
C156: x4+x11 <=1 
C157: x4+x13 <=1 
C158: x4+x14 <=1 
C159: x4+x16-y4_16 <=1 
C160: x4+x18-y4_18 <=1 
C161: x4+x20-y4_20 <=1 
C162: x4+x23 <=1 
C163: x4+x25 <=1 
C164: x4+x26-y4_26 <=1 
C165: x4+x28-y4_28 <=1 
C166: x4+x32 <=1 
C167: x4+x33 <=1 
C168: x4+x38 <=1 
C169: x4+x39 <=1 
C170: x4+x41 <=1 
C171: x4+x42 <=1 
C172: x4+x43-y4_43 <=1 
C173: x4+x44 <=1 
C174: x4+x47 <=1 
C175: x4+x48-y4_48 <=1 
C176: x4+x49-y4_49 <=1 
C177: x4+x50-y4_50 <=1 
C178: x4+x52-y4_52 <=1 
C179: x4+x53 <=1 
C180: x4+x54-y4_54 <=1 
C181: x4+x55-y4_55 <=1 
C182: x4+x56 <=1 
C183: x4+x58 <=1 
C184: x4+x59-y4_59 <=1 
C185: x4+x60-y4_60 <=1 
C186: x4+x61 <=1 
C187: x4+x64 <=1 
C188: x4+x65 <=1 
C189: x4+x66-y4_66 <=1 
C190: x5+x7 <=1 
C191: x5+x10 <=1 
C192: x5+x11-y5_11 <=1 
C193: x5+x13-y5_13 <=1 
C194: x5+x14-y5_14 <=1 
C195: x5+x15 <=1 
C196: x5+x16-y5_16 <=1 
C197: x5+x18-y5_18 <=1 
C198: x5+x20 <=1 
C199: x5+x23-y5_23 <=1 
C200: x5+x24-y5_24 <=1 
C201: x5+x27-y5_27 <=1 
C202: x5+x28-y5_28 <=1 
C203: x5+x30 <=1 
C204: x5+x31 <=1 
C205: x5+x33-y5_33 <=1 
C206: x5+x35-y5_35 <=1 
C207: x5+x36 <=1 
C208: x5+x37-y5_37 <=1 
C209: x5+x38 <=1 
C210: x5+x39 <=1 
C211: x5+x40 <=1 
C212: x5+x41-y5_41 <=1 
C213: x5+x44-y5_44 <=1 
C214: x5+x46-y5_46 <=1 
C215: x5+x47 <=1 
C216: x5+x48-y5_48 <=1 
C217: x5+x49 <=1 
C218: x5+x51 <=1 
C219: x5+x52-y5_52 <=1 
C220: x5+x56-y5_56 <=1 
C221: x5+x57 <=1 
C222: x5+x58-y5_58 <=1 
C223: x5+x59 <=1 
C224: x5+x60 <=1 
C225: x5+x61 <=1 
C226: x5+x62-y5_62 <=1 
C227: x5+x63-y5_63 <=1 
C228: x5+x65-y5_65 <=1 
C229: x6+x8 <=1 
C230: x6+x9 <=1 
C231: x6+x12-y6_12 <=1 
C232: x6+x13 <=1 
C233: x6+x14 <=1 
C234: x6+x16-y6_16 <=1 
C235: x6+x17-y6_17 <=1 
C236: x6+x19 <=1 
C237: x6+x20-y6_20 <=1 
C238: x6+x22-y6_22 <=1 
C239: x6+x23 <=1 
C240: x6+x24-y6_24 <=1 
C241: x6+x26 <=1 
C242: x6+x27-y6_27 <=1 
C243: x6+x30 <=1 
C244: x6+x33 <=1 
C245: x6+x36 <=1 
C246: x6+x37 <=1 
C247: x6+x38 <=1 
C248: x6+x40 <=1 
C249: x6+x41-y6_41 <=1 
C250: x6+x42 <=1 
C251: x6+x43-y6_43 <=1 
C252: x6+x44 <=1 
C253: x6+x45 <=1 
C254: x6+x48 <=1 
C255: x6+x50 <=1 
C256: x6+x51 <=1 
C257: x6+x53 <=1 
C258: x6+x54 <=1 
C259: x6+x57 <=1 
C260: x6+x60-y6_60 <=1 
C261: x6+x61 <=1 
C262: x6+x63 <=1 
C263: x6+x66 <=1 
C264: x7+x9 <=1 
C265: x7+x11-y7_11 <=1 
C266: x7+x12 <=1 
C267: x7+x14 <=1 
C268: x7+x15-y7_15 <=1 
C269: x7+x16 <=1 
C270: x7+x17 <=1 
C271: x7+x18-y7_18 <=1 
C272: x7+x20 <=1 
C273: x7+x23-y7_23 <=1 
C274: x7+x24-y7_24 <=1 
C275: x7+x25 <=1 
C276: x7+x28 <=1 
C277: x7+x32-y7_32 <=1 
C278: x7+x33-y7_33 <=1 
C279: x7+x34 <=1 
C280: x7+x35-y7_35 <=1 
C281: x7+x38 <=1 
C282: x7+x40-y7_40 <=1 
C283: x7+x42 <=1 
C284: x7+x43 <=1 
C285: x7+x44 <=1 
C286: x7+x45 <=1 
C287: x7+x46 <=1 
C288: x7+x47-y7_47 <=1 
C289: x7+x48 <=1 
C290: x7+x49-y7_49 <=1 
C291: x7+x51 <=1 
C292: x7+x53-y7_53 <=1 
C293: x7+x55 <=1 
C294: x7+x58-y7_58 <=1 
C295: x7+x59 <=1 
C296: x7+x60-y7_60 <=1 
C297: x7+x61-y7_61 <=1 
C298: x7+x62 <=1 
C299: x7+x64-y7_64 <=1 
C300: x7+x65 <=1 
C301: x7+x66 <=1 
C302: x8+x9-y8_9 <=1 
C303: x8+x11-y8_11 <=1 
C304: x8+x12 <=1 
C305: x8+x13-y8_13 <=1 
C306: x8+x14 <=1 
C307: x8+x16-y8_16 <=1 
C308: x8+x20-y8_20 <=1 
C309: x8+x22 <=1 
C310: x8+x23 <=1 
C311: x8+x25 <=1 
C312: x8+x26-y8_26 <=1 
C313: x8+x30-y8_30 <=1 
C314: x8+x32 <=1 
C315: x8+x35 <=1 
C316: x8+x42-y8_42 <=1 
C317: x8+x45 <=1 
C318: x8+x47 <=1 
C319: x8+x50-y8_50 <=1 
C320: x8+x53 <=1 
C321: x8+x54 <=1 
C322: x8+x55 <=1 
C323: x8+x57 <=1 
C324: x8+x58 <=1 
C325: x8+x59-y8_59 <=1 
C326: x8+x60 <=1 
C327: x8+x62-y8_62 <=1 
C328: x8+x64 <=1 
C329: x9+x10-y9_10 <=1 
C330: x9+x12 <=1 
C331: x9+x14-y9_14 <=1 
C332: x9+x15-y9_15 <=1 
C333: x9+x16-y9_16 <=1 
C334: x9+x17-y9_17 <=1 
C335: x9+x18 <=1 
C336: x9+x20-y9_20 <=1 
C337: x9+x25 <=1 
C338: x9+x26-y9_26 <=1 
C339: x9+x28-y9_28 <=1 
C340: x9+x30-y9_30 <=1 
C341: x9+x31 <=1 
C342: x9+x35-y9_35 <=1 
C343: x9+x37-y9_37 <=1 
C344: x9+x39-y9_39 <=1 
C345: x9+x40 <=1 
C346: x9+x41 <=1 
C347: x9+x42-y9_42 <=1 
C348: x9+x44 <=1 
C349: x9+x45 <=1 
C350: x9+x46 <=1 
C351: x9+x48 <=1 
C352: x9+x49 <=1 
C353: x9+x50 <=1 
C354: x9+x51 <=1 
C355: x9+x57-y9_57 <=1 
C356: x9+x59 <=1 
C357: x9+x63-y9_63 <=1 
C358: x9+x65 <=1 
C359: x10+x13 <=1 
C360: x10+x14-y10_14 <=1 
C361: x10+x16-y10_16 <=1 
C362: x10+x21-y10_21 <=1 
C363: x10+x22-y10_22 <=1 
C364: x10+x23-y10_23 <=1 
C365: x10+x24 <=1 
C366: x10+x28-y10_28 <=1 
C367: x10+x29 <=1 
C368: x10+x30 <=1 
C369: x10+x31 <=1 
C370: x10+x34 <=1 
C371: x10+x35 <=1 
C372: x10+x36 <=1 
C373: x10+x39-y10_39 <=1 
C374: x10+x41-y10_41 <=1 
C375: x10+x42 <=1 
C376: x10+x43 <=1 
C377: x10+x44 <=1 
C378: x10+x45 <=1 
C379: x10+x46-y10_46 <=1 
C380: x10+x47-y10_47 <=1 
C381: x10+x49-y10_49 <=1 
C382: x10+x50-y10_50 <=1 
C383: x10+x53-y10_53 <=1 
C384: x10+x54-y10_54 <=1 
C385: x10+x57 <=1 
C386: x10+x58-y10_58 <=1 
C387: x10+x59 <=1 
C388: x10+x60-y10_60 <=1 
C389: x10+x61-y10_61 <=1 
C390: x10+x64 <=1 
C391: x10+x65-y10_65 <=1 
C392: x10+x66-y10_66 <=1 
C393: x11+x13 <=1 
C394: x11+x17 <=1 
C395: x11+x18-y11_18 <=1 
C396: x11+x20 <=1 
C397: x11+x21 <=1 
C398: x11+x23 <=1 
C399: x11+x24 <=1 
C400: x11+x25 <=1 
C401: x11+x29-y11_29 <=1 
C402: x11+x30-y11_30 <=1 
C403: x11+x32-y11_32 <=1 
C404: x11+x33-y11_33 <=1 
C405: x11+x35 <=1 
C406: x11+x36-y11_36 <=1 
C407: x11+x37-y11_37 <=1 
C408: x11+x38-y11_38 <=1 
C409: x11+x41-y11_41 <=1 
C410: x11+x42-y11_42 <=1 
C411: x11+x44 <=1 
C412: x11+x45-y11_45 <=1 
C413: x11+x49 <=1 
C414: x11+x50-y11_50 <=1 
C415: x11+x52 <=1 
C416: x11+x53-y11_53 <=1 
C417: x11+x54-y11_54 <=1 
C418: x11+x55 <=1 
C419: x11+x57-y11_57 <=1 
C420: x11+x58-y11_58 <=1 
C421: x11+x60-y11_60 <=1 
C422: x11+x64-y11_64 <=1 
C423: x11+x66 <=1 
C424: x12+x13-y12_13 <=1 
C425: x12+x14 <=1 
C426: x12+x15-y12_15 <=1 
C427: x12+x16 <=1 
C428: x12+x18 <=1 
C429: x12+x20-y12_20 <=1 
C430: x12+x21-y12_21 <=1 
C431: x12+x23-y12_23 <=1 
C432: x12+x24 <=1 
C433: x12+x26 <=1 
C434: x12+x29-y12_29 <=1 
C435: x12+x30-y12_30 <=1 
C436: x12+x31 <=1 
C437: x12+x37 <=1 
C438: x12+x40 <=1 
C439: x12+x41-y12_41 <=1 
C440: x12+x44-y12_44 <=1 
C441: x12+x47-y12_47 <=1 
C442: x12+x48 <=1 
C443: x12+x50 <=1 
C444: x12+x55-y12_55 <=1 
C445: x12+x57-y12_57 <=1 
C446: x12+x58-y12_58 <=1 
C447: x12+x61-y12_61 <=1 
C448: x12+x62-y12_62 <=1 
C449: x12+x63-y12_63 <=1 
C450: x12+x64 <=1 
C451: x13+x14 <=1 
C452: x13+x16 <=1 
C453: x13+x17 <=1 
C454: x13+x18 <=1 
C455: x13+x19-y13_19 <=1 
C456: x13+x20-y13_20 <=1 
C457: x13+x21 <=1 
C458: x13+x22-y13_22 <=1 
C459: x13+x25-y13_25 <=1 
C460: x13+x26 <=1 
C461: x13+x27 <=1 
C462: x13+x28 <=1 
C463: x13+x29-y13_29 <=1 
C464: x13+x32-y13_32 <=1 
C465: x13+x33 <=1 
C466: x13+x35-y13_35 <=1 
C467: x13+x38-y13_38 <=1 
C468: x13+x43-y13_43 <=1 
C469: x13+x44 <=1 
C470: x13+x45-y13_45 <=1 
C471: x13+x46-y13_46 <=1 
C472: x13+x47 <=1 
C473: x13+x50-y13_50 <=1 
C474: x13+x51-y13_51 <=1 
C475: x13+x53-y13_53 <=1 
C476: x13+x56 <=1 
C477: x13+x57-y13_57 <=1 
C478: x13+x59-y13_59 <=1 
C479: x13+x60-y13_60 <=1 
C480: x13+x61-y13_61 <=1 
C481: x13+x62-y13_62 <=1 
C482: x13+x63 <=1 
C483: x13+x64-y13_64 <=1 
C484: x13+x65-y13_65 <=1 
C485: x13+x66 <=1 
C486: x14+x18-y14_18 <=1 
C487: x14+x19 <=1 
C488: x14+x20 <=1 
C489: x14+x23 <=1 
C490: x14+x24-y14_24 <=1 
C491: x14+x26-y14_26 <=1 
C492: x14+x29 <=1 
C493: x14+x30 <=1 
C494: x14+x32-y14_32 <=1 
C495: x14+x33-y14_33 <=1 
C496: x14+x38 <=1 
C497: x14+x39-y14_39 <=1 
C498: x14+x43 <=1 
C499: x14+x46 <=1 
C500: x14+x47 <=1 
C501: x14+x51-y14_51 <=1 
C502: x14+x52-y14_52 <=1 
C503: x14+x53 <=1 
C504: x14+x55-y14_55 <=1 
C505: x14+x56-y14_56 <=1 
C506: x14+x59 <=1 
C507: x14+x64-y14_64 <=1 
C508: x14+x65 <=1 
C509: x14+x66 <=1 
C510: x15+x17-y15_17 <=1 
C511: x15+x18-y15_18 <=1 
C512: x15+x20-y15_20 <=1 
C513: x15+x21-y15_21 <=1 
C514: x15+x25-y15_25 <=1 
C515: x15+x26-y15_26 <=1 
C516: x15+x27-y15_27 <=1 
C517: x15+x31 <=1 
C518: x15+x32-y15_32 <=1 
C519: x15+x33 <=1 
C520: x15+x35-y15_35 <=1 
C521: x15+x37 <=1 
C522: x15+x38 <=1 
C523: x15+x39 <=1 
C524: x15+x40-y15_40 <=1 
C525: x15+x44 <=1 
C526: x15+x45-y15_45 <=1 
C527: x15+x46-y15_46 <=1 
C528: x15+x48-y15_48 <=1 
C529: x15+x49-y15_49 <=1 
C530: x15+x52-y15_52 <=1 
C531: x15+x53-y15_53 <=1 
C532: x15+x54-y15_54 <=1 
C533: x15+x56 <=1 
C534: x15+x57 <=1 
C535: x15+x62 <=1 
C536: x15+x63-y15_63 <=1 
C537: x15+x65 <=1 
C538: x15+x66-y15_66 <=1 
C539: x16+x17 <=1 
C540: x16+x19 <=1 
C541: x16+x20-y16_20 <=1 
C542: x16+x23-y16_23 <=1 
C543: x16+x24-y16_24 <=1 
C544: x16+x26-y16_26 <=1 
C545: x16+x27 <=1 
C546: x16+x28-y16_28 <=1 
C547: x16+x29 <=1 
C548: x16+x32 <=1 
C549: x16+x33-y16_33 <=1 
C550: x16+x35 <=1 
C551: x16+x36 <=1 
C552: x16+x37 <=1 
C553: x16+x38-y16_38 <=1 
C554: x16+x39 <=1 
C555: x16+x40-y16_40 <=1 
C556: x16+x41 <=1 
C557: x16+x42 <=1 
C558: x16+x43 <=1 
C559: x16+x44-y16_44 <=1 
C560: x16+x46-y16_46 <=1 
C561: x16+x49 <=1 
C562: x16+x52 <=1 
C563: x16+x56 <=1 
C564: x16+x57 <=1 
C565: x16+x58 <=1 
C566: x16+x59-y16_59 <=1 
C567: x16+x60 <=1 
C568: x16+x62 <=1 
C569: x16+x63 <=1 
C570: x16+x65-y16_65 <=1 
C571: x17+x18 <=1 
C572: x17+x19 <=1 
C573: x17+x20-y17_20 <=1 
C574: x17+x21-y17_21 <=1 
C575: x17+x22 <=1 
C576: x17+x23-y17_23 <=1 
C577: x17+x24 <=1 
C578: x17+x27-y17_27 <=1 
C579: x17+x29-y17_29 <=1 
C580: x17+x33 <=1 
C581: x17+x35 <=1 
C582: x17+x36 <=1 
C583: x17+x37 <=1 
C584: x17+x38 <=1 
C585: x17+x39 <=1 
C586: x17+x40-y17_40 <=1 
C587: x17+x42-y17_42 <=1 
C588: x17+x44 <=1 
C589: x17+x46-y17_46 <=1 
C590: x17+x47-y17_47 <=1 
C591: x17+x48 <=1 
C592: x17+x50 <=1 
C593: x17+x52-y17_52 <=1 
C594: x17+x53-y17_53 <=1 
C595: x17+x58 <=1 
C596: x17+x59-y17_59 <=1 
C597: x17+x60-y17_60 <=1 
C598: x17+x62 <=1 
C599: x17+x64 <=1 
C600: x17+x65 <=1 
C601: x18+x19 <=1 
C602: x18+x20-y18_20 <=1 
C603: x18+x23 <=1 
C604: x18+x24-y18_24 <=1 
C605: x18+x26 <=1 
C606: x18+x27-y18_27 <=1 
C607: x18+x28 <=1 
C608: x18+x29 <=1 
C609: x18+x30-y18_30 <=1 
C610: x18+x33-y18_33 <=1 
C611: x18+x34-y18_34 <=1 
C612: x18+x35-y18_35 <=1 
C613: x18+x36 <=1 
C614: x18+x37 <=1 
C615: x18+x38-y18_38 <=1 
C616: x18+x39-y18_39 <=1 
C617: x18+x40 <=1 
C618: x18+x41 <=1 
C619: x18+x42 <=1 
C620: x18+x43-y18_43 <=1 
C621: x18+x44-y18_44 <=1 
C622: x18+x47 <=1 
C623: x18+x48-y18_48 <=1 
C624: x18+x49-y18_49 <=1 
C625: x18+x50 <=1 
C626: x18+x52-y18_52 <=1 
C627: x18+x53-y18_53 <=1 
C628: x18+x57-y18_57 <=1 
C629: x18+x58-y18_58 <=1 
C630: x18+x60 <=1 
C631: x18+x61-y18_61 <=1 
C632: x18+x63 <=1 
C633: x19+x22-y19_22 <=1 
C634: x19+x24 <=1 
C635: x19+x26 <=1 
C636: x19+x27-y19_27 <=1 
C637: x19+x29 <=1 
C638: x19+x30-y19_30 <=1 
C639: x19+x33-y19_33 <=1 
C640: x19+x34-y19_34 <=1 
C641: x19+x35 <=1 
C642: x19+x36-y19_36 <=1 
C643: x19+x37-y19_37 <=1 
C644: x19+x38-y19_38 <=1 
C645: x19+x41-y19_41 <=1 
C646: x19+x42 <=1 
C647: x19+x43 <=1 
C648: x19+x45 <=1 
C649: x19+x46-y19_46 <=1 
C650: x19+x47 <=1 
C651: x19+x49 <=1 
C652: x19+x50-y19_50 <=1 
C653: x19+x51-y19_51 <=1 
C654: x19+x54-y19_54 <=1 
C655: x19+x55-y19_55 <=1 
C656: x19+x58 <=1 
C657: x19+x60 <=1 
C658: x19+x61 <=1 
C659: x19+x62-y19_62 <=1 
C660: x19+x65-y19_65 <=1 
C661: x20+x21-y20_21 <=1 
C662: x20+x25-y20_25 <=1 
C663: x20+x26-y20_26 <=1 
C664: x20+x27-y20_27 <=1 
C665: x20+x28 <=1 
C666: x20+x30-y20_30 <=1 
C667: x20+x33 <=1 
C668: x20+x34-y20_34 <=1 
C669: x20+x36-y20_36 <=1 
C670: x20+x37-y20_37 <=1 
C671: x20+x38 <=1 
C672: x20+x39 <=1 
C673: x20+x44 <=1 
C674: x20+x47 <=1 
C675: x20+x48-y20_48 <=1 
C676: x20+x51 <=1 
C677: x20+x52-y20_52 <=1 
C678: x20+x54-y20_54 <=1 
C679: x20+x57 <=1 
C680: x20+x61 <=1 
C681: x20+x65-y20_65 <=1 
C682: x20+x66 <=1 
C683: x21+x22-y21_22 <=1 
C684: x21+x23-y21_23 <=1 
C685: x21+x24-y21_24 <=1 
C686: x21+x25 <=1 
C687: x21+x27 <=1 
C688: x21+x28-y21_28 <=1 
C689: x21+x29 <=1 
C690: x21+x31-y21_31 <=1 
C691: x21+x32-y21_32 <=1 
C692: x21+x33-y21_33 <=1 
C693: x21+x34 <=1 
C694: x21+x35 <=1 
C695: x21+x39 <=1 
C696: x21+x40-y21_40 <=1 
C697: x21+x43 <=1 
C698: x21+x44-y21_44 <=1 
C699: x21+x45 <=1 
C700: x21+x48 <=1 
C701: x21+x49 <=1 
C702: x21+x50-y21_50 <=1 
C703: x21+x52 <=1 
C704: x21+x59-y21_59 <=1 
C705: x21+x62 <=1 
C706: x22+x27-y22_27 <=1 
C707: x22+x30-y22_30 <=1 
C708: x22+x31 <=1 
C709: x22+x33-y22_33 <=1 
C710: x22+x34 <=1 
C711: x22+x35 <=1 
C712: x22+x36-y22_36 <=1 
C713: x22+x37-y22_37 <=1 
C714: x22+x38 <=1 
C715: x22+x39 <=1 
C716: x22+x41-y22_41 <=1 
C717: x22+x42 <=1 
C718: x22+x44-y22_44 <=1 
C719: x22+x45 <=1 
C720: x22+x46 <=1 
C721: x22+x47 <=1 
C722: x22+x48 <=1 
C723: x22+x49-y22_49 <=1 
C724: x22+x50-y22_50 <=1 
C725: x22+x51-y22_51 <=1 
C726: x22+x54-y22_54 <=1 
C727: x22+x57 <=1 
C728: x22+x58 <=1 
C729: x22+x62 <=1 
C730: x22+x63-y22_63 <=1 
C731: x22+x64 <=1 
C732: x22+x65-y22_65 <=1 
C733: x23+x27 <=1 
C734: x23+x28 <=1 
C735: x23+x29 <=1 
C736: x23+x31-y23_31 <=1 
C737: x23+x32 <=1 
C738: x23+x33-y23_33 <=1 
C739: x23+x34 <=1 
C740: x23+x35 <=1 
C741: x23+x37 <=1 
C742: x23+x40-y23_40 <=1 
C743: x23+x41-y23_41 <=1 
C744: x23+x43 <=1 
C745: x23+x46-y23_46 <=1 
C746: x23+x48 <=1 
C747: x23+x49-y23_49 <=1 
C748: x23+x50 <=1 
C749: x23+x52 <=1 
C750: x23+x53 <=1 
C751: x23+x56-y23_56 <=1 
C752: x23+x57-y23_57 <=1 
C753: x23+x59-y23_59 <=1 
C754: x23+x60 <=1 
C755: x23+x61 <=1 
C756: x23+x66-y23_66 <=1 
C757: x24+x25-y24_25 <=1 
C758: x24+x28-y24_28 <=1 
C759: x24+x29-y24_29 <=1 
C760: x24+x30-y24_30 <=1 
C761: x24+x31 <=1 
C762: x24+x32-y24_32 <=1 
C763: x24+x33-y24_33 <=1 
C764: x24+x34 <=1 
C765: x24+x36-y24_36 <=1 
C766: x24+x37 <=1 
C767: x24+x38 <=1 
C768: x24+x39 <=1 
C769: x24+x41-y24_41 <=1 
C770: x24+x42-y24_42 <=1 
C771: x24+x43-y24_43 <=1 
C772: x24+x44 <=1 
C773: x24+x45 <=1 
C774: x24+x47 <=1 
C775: x24+x48 <=1 
C776: x24+x50-y24_50 <=1 
C777: x24+x52-y24_52 <=1 
C778: x24+x53-y24_53 <=1 
C779: x24+x54-y24_54 <=1 
C780: x24+x55 <=1 
C781: x24+x56 <=1 
C782: x24+x59 <=1 
C783: x24+x60-y24_60 <=1 
C784: x24+x61-y24_61 <=1 
C785: x24+x62 <=1 
C786: x24+x63 <=1 
C787: x24+x64-y24_64 <=1 
C788: x25+x26-y25_26 <=1 
C789: x25+x27 <=1 
C790: x25+x29 <=1 
C791: x25+x30-y25_30 <=1 
C792: x25+x31 <=1 
C793: x25+x33 <=1 
C794: x25+x34-y25_34 <=1 
C795: x25+x35 <=1 
C796: x25+x37-y25_37 <=1 
C797: x25+x39-y25_39 <=1 
C798: x25+x40-y25_40 <=1 
C799: x25+x43-y25_43 <=1 
C800: x25+x44 <=1 
C801: x25+x45-y25_45 <=1 
C802: x25+x50 <=1 
C803: x25+x51 <=1 
C804: x25+x52-y25_52 <=1 
C805: x25+x57-y25_57 <=1 
C806: x25+x58 <=1 
C807: x25+x59-y25_59 <=1 
C808: x25+x60 <=1 
C809: x25+x61-y25_61 <=1 
C810: x25+x63-y25_63 <=1 
C811: x25+x66-y25_66 <=1 
C812: x26+x31-y26_31 <=1 
C813: x26+x33-y26_33 <=1 
C814: x26+x34 <=1 
C815: x26+x35 <=1 
C816: x26+x36 <=1 
C817: x26+x37-y26_37 <=1 
C818: x26+x38-y26_38 <=1 
C819: x26+x40 <=1 
C820: x26+x41-y26_41 <=1 
C821: x26+x42 <=1 
C822: x26+x44 <=1 
C823: x26+x45 <=1 
C824: x26+x48 <=1 
C825: x26+x49-y26_49 <=1 
C826: x26+x50-y26_50 <=1 
C827: x26+x51-y26_51 <=1 
C828: x26+x52-y26_52 <=1 
C829: x26+x53 <=1 
C830: x26+x56-y26_56 <=1 
C831: x26+x58 <=1 
C832: x26+x62 <=1 
C833: x26+x63-y26_63 <=1 
C834: x26+x66 <=1 
C835: x27+x29 <=1 
C836: x27+x30-y27_30 <=1 
C837: x27+x32-y27_32 <=1 
C838: x27+x35 <=1 
C839: x27+x38-y27_38 <=1 
C840: x27+x41 <=1 
C841: x27+x42-y27_42 <=1 
C842: x27+x44-y27_44 <=1 
C843: x27+x45-y27_45 <=1 
C844: x27+x46 <=1 
C845: x27+x51 <=1 
C846: x27+x55-y27_55 <=1 
C847: x27+x56 <=1 
C848: x27+x60-y27_60 <=1 
C849: x27+x62-y27_62 <=1 
C850: x27+x66-y27_66 <=1 
C851: x28+x34 <=1 
C852: x28+x35 <=1 
C853: x28+x37-y28_37 <=1 
C854: x28+x39 <=1 
C855: x28+x40-y28_40 <=1 
C856: x28+x41 <=1 
C857: x28+x42 <=1 
C858: x28+x46 <=1 
C859: x28+x53 <=1 
C860: x28+x55 <=1 
C861: x28+x56-y28_56 <=1 
C862: x28+x57 <=1 
C863: x28+x58 <=1 
C864: x28+x59 <=1 
C865: x28+x60 <=1 
C866: x28+x61-y28_61 <=1 
C867: x28+x64 <=1 
C868: x28+x65-y28_65 <=1 
C869: x28+x66 <=1 
C870: x29+x30 <=1 
C871: x29+x31 <=1 
C872: x29+x32 <=1 
C873: x29+x33 <=1 
C874: x29+x35 <=1 
C875: x29+x36-y29_36 <=1 
C876: x29+x37 <=1 
C877: x29+x38-y29_38 <=1 
C878: x29+x39 <=1 
C879: x29+x41-y29_41 <=1 
C880: x29+x42-y29_42 <=1 
C881: x29+x43-y29_43 <=1 
C882: x29+x44 <=1 
C883: x29+x46-y29_46 <=1 
C884: x29+x47 <=1 
C885: x29+x48 <=1 
C886: x29+x50-y29_50 <=1 
C887: x29+x51-y29_51 <=1 
C888: x29+x53-y29_53 <=1 
C889: x29+x57-y29_57 <=1 
C890: x29+x58 <=1 
C891: x29+x59 <=1 
C892: x29+x60 <=1 
C893: x29+x63 <=1 
C894: x29+x64-y29_64 <=1 
C895: x29+x65-y29_65 <=1 
C896: x29+x66-y29_66 <=1 
C897: x30+x32 <=1 
C898: x30+x33 <=1 
C899: x30+x35 <=1 
C900: x30+x36-y30_36 <=1 
C901: x30+x37 <=1 
C902: x30+x39-y30_39 <=1 
C903: x30+x42-y30_42 <=1 
C904: x30+x43 <=1 
C905: x30+x44-y30_44 <=1 
C906: x30+x45 <=1 
C907: x30+x49-y30_49 <=1 
C908: x30+x51 <=1 
C909: x30+x52-y30_52 <=1 
C910: x30+x53 <=1 
C911: x30+x54-y30_54 <=1 
C912: x30+x56 <=1 
C913: x30+x57-y30_57 <=1 
C914: x30+x60-y30_60 <=1 
C915: x30+x61-y30_61 <=1 
C916: x30+x62-y30_62 <=1 
C917: x30+x63 <=1 
C918: x30+x64-y30_64 <=1 
C919: x30+x66-y30_66 <=1 
C920: x31+x32 <=1 
C921: x31+x33-y31_33 <=1 
C922: x31+x34 <=1 
C923: x31+x37-y31_37 <=1 
C924: x31+x42-y31_42 <=1 
C925: x31+x43 <=1 
C926: x31+x47-y31_47 <=1 
C927: x31+x48-y31_48 <=1 
C928: x31+x49 <=1 
C929: x31+x50 <=1 
C930: x31+x52 <=1 
C931: x31+x55 <=1 
C932: x31+x56 <=1 
C933: x31+x57 <=1 
C934: x31+x60-y31_60 <=1 
C935: x31+x61 <=1 
C936: x31+x62-y31_62 <=1 
C937: x32+x33 <=1 
C938: x32+x34 <=1 
C939: x32+x35-y32_35 <=1 
C940: x32+x40 <=1 
C941: x32+x41 <=1 
C942: x32+x42 <=1 
C943: x32+x44 <=1 
C944: x32+x45-y32_45 <=1 
C945: x32+x47 <=1 
C946: x32+x48-y32_48 <=1 
C947: x32+x49 <=1 
C948: x32+x50-y32_50 <=1 
C949: x32+x54 <=1 
C950: x32+x57-y32_57 <=1 
C951: x32+x58 <=1 
C952: x32+x61-y32_61 <=1 
C953: x32+x63 <=1 
C954: x32+x66 <=1 
C955: x33+x34 <=1 
C956: x33+x35 <=1 
C957: x33+x37 <=1 
C958: x33+x41 <=1 
C959: x33+x42-y33_42 <=1 
C960: x33+x43-y33_43 <=1 
C961: x33+x45-y33_45 <=1 
C962: x33+x46-y33_46 <=1 
C963: x33+x49-y33_49 <=1 
C964: x33+x50-y33_50 <=1 
C965: x33+x51 <=1 
C966: x33+x53 <=1 
C967: x33+x55-y33_55 <=1 
C968: x33+x57 <=1 
C969: x33+x58-y33_58 <=1 
C970: x33+x60 <=1 
C971: x33+x62-y33_62 <=1 
C972: x33+x63-y33_63 <=1 
C973: x33+x64 <=1 
C974: x33+x66-y33_66 <=1 
C975: x34+x35 <=1 
C976: x34+x36-y34_36 <=1 
C977: x34+x40-y34_40 <=1 
C978: x34+x42 <=1 
C979: x34+x44 <=1 
C980: x34+x45-y34_45 <=1 
C981: x34+x46-y34_46 <=1 
C982: x34+x47-y34_47 <=1 
C983: x34+x48-y34_48 <=1 
C984: x34+x49-y34_49 <=1 
C985: x34+x50-y34_50 <=1 
C986: x34+x51 <=1 
C987: x34+x52 <=1 
C988: x34+x56-y34_56 <=1 
C989: x34+x58-y34_58 <=1 
C990: x34+x59 <=1 
C991: x34+x60-y34_60 <=1 
C992: x34+x62-y34_62 <=1 
C993: x34+x63 <=1 
C994: x34+x65 <=1 
C995: x34+x66 <=1 
C996: x35+x36 <=1 
C997: x35+x40-y35_40 <=1 
C998: x35+x42-y35_42 <=1 
C999: x35+x43-y35_43 <=1 
C1000: x35+x44 <=1 
C1001: x35+x45 <=1 
C1002: x35+x46 <=1 
C1003: x35+x47-y35_47 <=1 
C1004: x35+x49-y35_49 <=1 
C1005: x35+x50 <=1 
C1006: x35+x51-y35_51 <=1 
C1007: x35+x52-y35_52 <=1 
C1008: x35+x57 <=1 
C1009: x35+x59-y35_59 <=1 
C1010: x35+x60-y35_60 <=1 
C1011: x35+x61 <=1 
C1012: x35+x63 <=1 
C1013: x35+x64-y35_64 <=1 
C1014: x36+x38 <=1 
C1015: x36+x40-y36_40 <=1 
C1016: x36+x41-y36_41 <=1 
C1017: x36+x45 <=1 
C1018: x36+x46-y36_46 <=1 
C1019: x36+x47 <=1 
C1020: x36+x48-y36_48 <=1 
C1021: x36+x53-y36_53 <=1 
C1022: x36+x55-y36_55 <=1 
C1023: x36+x56-y36_56 <=1 
C1024: x36+x57-y36_57 <=1 
C1025: x36+x58-y36_58 <=1 
C1026: x36+x63 <=1 
C1027: x36+x66-y36_66 <=1 
C1028: x37+x44-y37_44 <=1 
C1029: x37+x46 <=1 
C1030: x37+x47 <=1 
C1031: x37+x49 <=1 
C1032: x37+x50 <=1 
C1033: x37+x51-y37_51 <=1 
C1034: x37+x52-y37_52 <=1 
C1035: x37+x53-y37_53 <=1 
C1036: x37+x56 <=1 
C1037: x37+x58-y37_58 <=1 
C1038: x37+x59-y37_59 <=1 
C1039: x37+x60-y37_60 <=1 
C1040: x37+x61 <=1 
C1041: x37+x62 <=1 
C1042: x37+x63 <=1 
C1043: x37+x64 <=1 
C1044: x37+x65-y37_65 <=1 
C1045: x38+x39 <=1 
C1046: x38+x42 <=1 
C1047: x38+x44 <=1 
C1048: x38+x46 <=1 
C1049: x38+x47 <=1 
C1050: x38+x49 <=1 
C1051: x38+x50-y38_50 <=1 
C1052: x38+x51-y38_51 <=1 
C1053: x38+x52-y38_52 <=1 
C1054: x38+x53 <=1 
C1055: x38+x54-y38_54 <=1 
C1056: x38+x55-y38_55 <=1 
C1057: x38+x57 <=1 
C1058: x38+x58 <=1 
C1059: x38+x59 <=1 
C1060: x38+x60-y38_60 <=1 
C1061: x38+x61-y38_61 <=1 
C1062: x38+x62 <=1 
C1063: x39+x40-y39_40 <=1 
C1064: x39+x41-y39_41 <=1 
C1065: x39+x42-y39_42 <=1 
C1066: x39+x43 <=1 
C1067: x39+x44 <=1 
C1068: x39+x47 <=1 
C1069: x39+x48 <=1 
C1070: x39+x50 <=1 
C1071: x39+x51-y39_51 <=1 
C1072: x39+x53 <=1 
C1073: x39+x55-y39_55 <=1 
C1074: x39+x56-y39_56 <=1 
C1075: x39+x57 <=1 
C1076: x39+x61-y39_61 <=1 
C1077: x39+x66-y39_66 <=1 
C1078: x40+x41 <=1 
C1079: x40+x42 <=1 
C1080: x40+x43-y40_43 <=1 
C1081: x40+x46-y40_46 <=1 
C1082: x40+x47-y40_47 <=1 
C1083: x40+x48 <=1 
C1084: x40+x49 <=1 
C1085: x40+x50-y40_50 <=1 
C1086: x40+x51-y40_51 <=1 
C1087: x40+x52 <=1 
C1088: x40+x53 <=1 
C1089: x40+x55 <=1 
C1090: x40+x57-y40_57 <=1 
C1091: x40+x58 <=1 
C1092: x40+x59 <=1 
C1093: x40+x60 <=1 
C1094: x40+x63-y40_63 <=1 
C1095: x40+x64-y40_64 <=1 
C1096: x40+x66 <=1 
C1097: x41+x42 <=1 
C1098: x41+x44-y41_44 <=1 
C1099: x41+x45 <=1 
C1100: x41+x48-y41_48 <=1 
C1101: x41+x49-y41_49 <=1 
C1102: x41+x51-y41_51 <=1 
C1103: x41+x52 <=1 
C1104: x41+x55 <=1 
C1105: x41+x56-y41_56 <=1 
C1106: x41+x57 <=1 
C1107: x41+x58 <=1 
C1108: x41+x59-y41_59 <=1 
C1109: x41+x60-y41_60 <=1 
C1110: x41+x61-y41_61 <=1 
C1111: x41+x65-y41_65 <=1 
C1112: x41+x66 <=1 
C1113: x42+x44-y42_44 <=1 
C1114: x42+x45 <=1 
C1115: x42+x46 <=1 
C1116: x42+x47 <=1 
C1117: x42+x48 <=1 
C1118: x42+x49-y42_49 <=1 
C1119: x42+x51-y42_51 <=1 
C1120: x42+x52-y42_52 <=1 
C1121: x42+x55 <=1 
C1122: x42+x56-y42_56 <=1 
C1123: x42+x57 <=1 
C1124: x42+x59 <=1 
C1125: x42+x62 <=1 
C1126: x42+x63 <=1 
C1127: x42+x64 <=1 
C1128: x42+x65 <=1 
C1129: x42+x66-y42_66 <=1 
C1130: x43+x44 <=1 
C1131: x43+x45 <=1 
C1132: x43+x46 <=1 
C1133: x43+x48 <=1 
C1134: x43+x51 <=1 
C1135: x43+x53 <=1 
C1136: x43+x54 <=1 
C1137: x43+x57-y43_57 <=1 
C1138: x43+x59 <=1 
C1139: x43+x60-y43_60 <=1 
C1140: x43+x62-y43_62 <=1 
C1141: x43+x64-y43_64 <=1 
C1142: x43+x65-y43_65 <=1 
C1143: x44+x46 <=1 
C1144: x44+x47 <=1 
C1145: x44+x53 <=1 
C1146: x44+x54 <=1 
C1147: x44+x56-y44_56 <=1 
C1148: x44+x57 <=1 
C1149: x44+x59 <=1 
C1150: x44+x61-y44_61 <=1 
C1151: x44+x63-y44_63 <=1 
C1152: x44+x65 <=1 
C1153: x44+x66 <=1 
C1154: x45+x46 <=1 
C1155: x45+x48 <=1 
C1156: x45+x50 <=1 
C1157: x45+x52-y45_52 <=1 
C1158: x45+x54 <=1 
C1159: x45+x55 <=1 
C1160: x45+x58-y45_58 <=1 
C1161: x45+x59-y45_59 <=1 
C1162: x45+x60-y45_60 <=1 
C1163: x45+x61 <=1 
C1164: x45+x64 <=1 
C1165: x45+x66-y45_66 <=1 
C1166: x46+x47-y46_47 <=1 
C1167: x46+x48-y46_48 <=1 
C1168: x46+x49 <=1 
C1169: x46+x50 <=1 
C1170: x46+x51 <=1 
C1171: x46+x52 <=1 
C1172: x46+x55 <=1 
C1173: x46+x57-y46_57 <=1 
C1174: x46+x58 <=1 
C1175: x46+x59 <=1 
C1176: x46+x60-y46_60 <=1 
C1177: x46+x61 <=1 
C1178: x46+x63-y46_63 <=1 
C1179: x46+x64-y46_64 <=1 
C1180: x46+x65-y46_65 <=1 
C1181: x46+x66-y46_66 <=1 
C1182: x47+x48 <=1 
C1183: x47+x49-y47_49 <=1 
C1184: x47+x50 <=1 
C1185: x47+x51-y47_51 <=1 
C1186: x47+x53 <=1 
C1187: x47+x55 <=1 
C1188: x47+x56 <=1 
C1189: x47+x57 <=1 
C1190: x47+x60 <=1 
C1191: x47+x61 <=1 
C1192: x47+x63 <=1 
C1193: x47+x64-y47_64 <=1 
C1194: x47+x65-y47_65 <=1 
C1195: x47+x66 <=1 
C1196: x48+x49 <=1 
C1197: x48+x52 <=1 
C1198: x48+x53-y48_53 <=1 
C1199: x48+x54-y48_54 <=1 
C1200: x48+x55-y48_55 <=1 
C1201: x48+x56-y48_56 <=1 
C1202: x48+x64 <=1 
C1203: x48+x65-y48_65 <=1 
C1204: x48+x66-y48_66 <=1 
C1205: x49+x51-y49_51 <=1 
C1206: x49+x53-y49_53 <=1 
C1207: x49+x54 <=1 
C1208: x49+x55 <=1 
C1209: x49+x56 <=1 
C1210: x49+x57-y49_57 <=1 
C1211: x49+x58-y49_58 <=1 
C1212: x49+x59-y49_59 <=1 
C1213: x49+x61 <=1 
C1214: x49+x62-y49_62 <=1 
C1215: x49+x64 <=1 
C1216: x50+x52-y50_52 <=1 
C1217: x50+x56-y50_56 <=1 
C1218: x50+x59 <=1 
C1219: x50+x61-y50_61 <=1 
C1220: x50+x62-y50_62 <=1 
C1221: x50+x63 <=1 
C1222: x50+x65 <=1 
C1223: x51+x55 <=1 
C1224: x51+x57 <=1 
C1225: x51+x58-y51_58 <=1 
C1226: x51+x60-y51_60 <=1 
C1227: x51+x61 <=1 
C1228: x51+x63 <=1 
C1229: x51+x64 <=1 
C1230: x51+x66 <=1 
C1231: x52+x53 <=1 
C1232: x52+x55-y52_55 <=1 
C1233: x52+x56-y52_56 <=1 
C1234: x52+x57 <=1 
C1235: x52+x58-y52_58 <=1 
C1236: x52+x59-y52_59 <=1 
C1237: x52+x62-y52_62 <=1 
C1238: x52+x63-y52_63 <=1 
C1239: x52+x64-y52_64 <=1 
C1240: x52+x66-y52_66 <=1 
C1241: x53+x54 <=1 
C1242: x53+x55 <=1 
C1243: x53+x58 <=1 
C1244: x53+x59 <=1 
C1245: x53+x60-y53_60 <=1 
C1246: x53+x61 <=1 
C1247: x53+x62 <=1 
C1248: x53+x65-y53_65 <=1 
C1249: x53+x66-y53_66 <=1 
C1250: x54+x56 <=1 
C1251: x54+x57-y54_57 <=1 
C1252: x54+x59-y54_59 <=1 
C1253: x54+x61-y54_61 <=1 
C1254: x54+x63 <=1 
C1255: x54+x65-y54_65 <=1 
C1256: x54+x66 <=1 
C1257: x55+x57-y55_57 <=1 
C1258: x55+x60 <=1 
C1259: x56+x57 <=1 
C1260: x56+x58 <=1 
C1261: x56+x60-y56_60 <=1 
C1262: x56+x61-y56_61 <=1 
C1263: x56+x62 <=1 
C1264: x56+x64 <=1 
C1265: x56+x65 <=1 
C1266: x56+x66 <=1 
C1267: x57+x58 <=1 
C1268: x57+x59-y57_59 <=1 
C1269: x57+x61-y57_61 <=1 
C1270: x57+x62-y57_62 <=1 
C1271: x57+x65 <=1 
C1272: x57+x66 <=1 
C1273: x58+x60 <=1 
C1274: x58+x63 <=1 
C1275: x58+x64 <=1 
C1276: x58+x65 <=1 
C1277: x59+x60-y59_60 <=1 
C1278: x59+x62-y59_62 <=1 
C1279: x59+x63-y59_63 <=1 
C1280: x59+x65-y59_65 <=1 
C1281: x60+x61-y60_61 <=1 
C1282: x60+x62-y60_62 <=1 
C1283: x60+x63 <=1 
C1284: x60+x65 <=1 
C1285: x61+x62 <=1 
C1286: x61+x65 <=1 
C1287: x61+x66 <=1 
C1288: x62+x63-y62_63 <=1 
C1289: x62+x64-y62_64 <=1 
C1290: x62+x65 <=1 
C1291: x62+x66-y62_66 <=1 
C1292: x63+x65 <=1 
C1293: x64+x65 <=1 

binary
x0
x1
x2
x3
x4
x5
x6
x7
x8
x9
x10
x11
x12
x13
x14
x15
x16
x17
x18
x19
x20
x21
x22
x23
x24
x25
x26
x27
x28
x29
x30
x31
x32
x33
x34
x35
x36
x37
x38
x39
x40
x41
x42
x43
x44
x45
x46
x47
x48
x49
x50
x51
x52
x53
x54
x55
x56
x57
x58
x59
x60
x61
x62
x63
x64
x65
x66
