problem_generation/data/GISP/train/er_n=67_m=1293_p=0.60_SET2_setparam=100.00_alpha=0.50_401.sol
objective value:                                 1269
x0                                                  1 	(obj:100)
x13                                                 1 	(obj:100)
x15                                                 1 	(obj:100)
x19                                                 1 	(obj:100)
x20                                                 1 	(obj:100)
x23                                                 1 	(obj:100)
x25                                                 1 	(obj:100)
x30                                                 1 	(obj:100)
x36                                                 1 	(obj:100)
x41                                                 1 	(obj:100)
x54                                                 1 	(obj:100)
x59                                                 1 	(obj:100)
x64                                                 1 	(obj:100)
y15_25                                              1 	(obj:-1)
y13_64                                              1 	(obj:-1)
y13_59                                              1 	(obj:-1)
y54_59                                              1 	(obj:-1)
y30_64                                              1 	(obj:-1)
y19_41                                              1 	(obj:-1)
y19_36                                              1 	(obj:-1)
y30_36                                              1 	(obj:-1)
y0_41                                               1 	(obj:-1)
y19_54                                              1 	(obj:-1)
y30_54                                              1 	(obj:-1)
y0_59                                               1 	(obj:-1)
y0_54                                               1 	(obj:-1)
y15_20                                              1 	(obj:-1)
y41_59                                              1 	(obj:-1)
y19_30                                              1 	(obj:-1)
y25_59                                              1 	(obj:-1)
y36_41                                              1 	(obj:-1)
y13_25                                              1 	(obj:-1)
y13_20                                              1 	(obj:-1)
y20_36                                              1 	(obj:-1)
y23_41                                              1 	(obj:-1)
y20_54                                              1 	(obj:-1)
y23_59                                              1 	(obj:-1)
y13_19                                              1 	(obj:-1)
y0_30                                               1 	(obj:-1)
y0_25                                               1 	(obj:-1)
y20_30                                              1 	(obj:-1)
y15_54                                              1 	(obj:-1)
y20_25                                              1 	(obj:-1)
y25_30                                              1 	(obj:-1)
